mixintcount/benchmarks/random_v2l/3_3_8912.smt2
(set-logic QF_LIA)
(set-info :ran/ran2.smt2)
(set-info :smt-lib-version 2.0)
(declare-fun x1 () Int)
(declare-fun x2 () Int)
(declare-fun x3 () Int)
(assert (<= (+ (* 6 x1) (* 5 x2) (* 5 x3) ) (- 7114)))
(assert (<= (+ (* (- 3) x1) (* (- 5) x2) (* 6 x3) ) (- 1410)))
(assert (<= (+ (* (- 6) x1) (* (- 5) x2) (* (- 1) x3) ) 2711))
(assert (<= (+ (* 7 x1) (* (- 5) x2) (* 2 x3) ) 3720))
(assert (<= (+ (* (- 4) x1) (* 10 x2) (* 1 x3) ) (- 3123)))
(assert (<= (+ (* 2 x1) (* 8 x2) (* 1 x3) ) 5279))
(assert (<= (+ (* 1 x1) (* 0 x2) (* 0 x3) ) 8912))
(assert (<= (+ (* (- 1) x1) (* 0 x2) (* 0 x3) ) 8912))
(assert (<= (+ (* 0 x1) (* 1 x2) (* 0 x3) ) 8912))
(assert (<= (+ (* 0 x1) (* (- 1) x2) (* 0 x3) ) 8912))
(assert (<= (+ (* 0 x1) (* 0 x2) (* 1 x3) ) 8912))
(assert (<= (+ (* 0 x1) (* 0 x2) (* (- 1) x3) ) 8912))
