mixintcount/benchmarks/random_v2l/3_3_8912.in
12 5
#	x1	x2	x3;		0 = Real; 1 = Integer
	1	1	1
1	6	5	5	-7114
1	-3	-5	6	-1410
1	-6	-5	-1	2711
1	7	-5	2	3720
1	-4	10	1	-3123
1	2	8	1	5279
1	1	0	0	8912
1	-1	0	0	8912
1	0	1	0	8912
1	0	-1	0	8912
1	0	0	1	8912
1	0	0	-1	8912
